p edge 40 203 10
v 2 5 10
v 5 4 8 22 29 35
v 6 2 7 12 17 20 31
v 4 6 14 16 19
v 4 23 24 25 39
v 4 9 11 30 36
v 3 15 18 34
v 6 1 3 13 28 37 40
v 2 27 33
v 4 21 26 32 38
e 1 2
e 1 3
e 1 9
e 1 10
e 1 14
e 1 15
e 1 18
e 1 19
e 1 32
e 1 33
e 1 35
e 1 39
e 2 6
e 2 11
e 2 16
e 2 17
e 2 19
e 2 22
e 2 23
e 2 38
e 2 39
e 3 4
e 3 18
e 3 21
e 3 24
e 3 26
e 3 27
e 3 30
e 3 33
e 4 6
e 4 8
e 4 9
e 4 21
e 4 22
e 4 30
e 4 31
e 4 32
e 4 34
e 5 11
e 5 14
e 5 16
e 5 17
e 5 21
e 5 26
e 5 27
e 5 35
e 5 36
e 5 40
e 6 7
e 6 9
e 6 10
e 6 13
e 6 16
e 6 23
e 6 27
e 6 30
e 6 35
e 6 37
e 7 11
e 7 13
e 7 17
e 7 24
e 7 25
e 7 29
e 7 35
e 7 37
e 8 11
e 8 13
e 8 14
e 8 15
e 8 28
e 8 32
e 8 33
e 8 35
e 8 38
e 9 12
e 9 16
e 9 18
e 9 20
e 9 21
e 9 25
e 9 36
e 10 13
e 10 14
e 10 15
e 10 16
e 10 17
e 10 20
e 10 21
e 10 23
e 10 27
e 10 31
e 10 32
e 10 33
e 11 14
e 11 18
e 11 19
e 11 21
e 11 23
e 11 26
e 11 27
e 11 30
e 11 33
e 11 36
e 11 37
e 12 18
e 12 21
e 12 22
e 12 30
e 12 33
e 12 37
e 13 14
e 13 19
e 13 28
e 13 33
e 13 36
e 13 38
e 14 18
e 14 24
e 14 25
e 14 27
e 14 32
e 14 34
e 14 38
e 14 40
e 15 23
e 16 18
e 16 25
e 16 34
e 16 39
e 17 18
e 17 24
e 17 27
e 17 32
e 17 33
e 17 35
e 18 19
e 18 23
e 18 26
e 18 31
e 19 20
e 19 21
e 19 23
e 19 25
e 19 26
e 19 37
e 20 32
e 20 39
e 21 26
e 21 27
e 21 28
e 21 29
e 21 34
e 22 25
e 22 32
e 22 33
e 22 35
e 22 36
e 22 38
e 22 39
e 22 40
e 23 27
e 23 28
e 23 31
e 23 35
e 24 26
e 24 28
e 24 34
e 24 35
e 24 37
e 24 38
e 24 40
e 25 34
e 26 28
e 26 30
e 26 38
e 26 39
e 27 28
e 27 30
e 27 33
e 27 35
e 27 36
e 27 40
e 28 30
e 28 35
e 28 36
e 28 37
e 29 31
e 29 35
e 30 33
e 30 37
e 31 36
e 31 40
e 32 39
e 33 34
e 33 36
e 33 38
e 33 39
e 34 36
e 34 38
e 35 38
e 35 39
e 38 39
